p tw 93 106
1 2
2 13
3 4
4 5
5 6
6 7
7 8
8 9
9 10
9 11
10 92
11 12
12 14
13 24
14 15
14 47
15 16
16 17
17 18
18 19
18 27
19 20
20 21
21 22
22 23
22 27
23 25
24 35
25 26
26 16
27 28
28 29
28 5
29 30
30 31
31 32
32 33
33 34
33 5
34 36
35 46
36 37
37 38
38 39
38 43
39 40
40 41
41 42
42 30
43 44
44 45
45 30
46 57
47 48
48 49
49 50
49 5
50 51
51 52
52 53
53 54
54 55
54 5
55 56
56 58
57 68
57 3
58 59
59 60
59 84
60 61
61 62
62 63
63 64
64 65
65 66
66 67
67 69
67 82
68 79
69 70
70 71
71 72
71 75
72 73
73 74
74 77
75 76
76 77
77 78
78 80
79 90
79 8
80 81
81 50
82 83
83 84
84 85
85 86
86 87
87 53
88 89
89 91
90 88
91 92
92 93
